SDVRP instances/custom_instances/p02_22_splitx10_0.vrp
NAME:p02_22_splitx10_
BEST_KNOWN: 0
COMMENT: 0
DIMENSION: 342
CAPACITY: 1400
EDGE_WEIGHT_FORMAT: FUNCTION
EDGE_WEIGHT_TYPE: EXACT_2D
NODE_COORD_SECTION
1 0.00000 0.00000
2 41 -35
3 41 -35
4 41 -35
5 41 -35
6 41 -35
7 20 -37
8 20 -37
9 20 -37
10 -28 8
11 -28 8
12 -28 8
13 -28 8
14 -28 8
15 33 14
16 33 14
17 33 14
18 33 14
19 33 14
20 28 9
21 28 9
22 28 9
23 28 9
24 15 16
25 15 16
26 15 16
27 15 16
28 15 16
29 15 16
30 -28 35
31 -28 35
32 -28 35
33 -28 35
34 -28 35
35 -28 35
36 -26 20
37 -26 20
38 -26 20
39 -26 20
40 -35 21
41 -35 21
42 -34 -45
43 -34 -45
44 -34 -45
45 18 44
46 18 44
47 18 44
48 18 44
49 11 -33
50 11 -33
51 11 -33
52 -41 48
53 -41 48
54 -41 48
55 -41 48
56 -41 48
57 -38 21
58 -38 21
59 -38 21
60 9 -38
61 9 -38
62 9 -38
63 9 -38
64 9 -38
65 21 -16
66 21 -16
67 21 -16
68 21 -16
69 -1 1
70 -1 1
71 -1 1
72 -1 1
73 -1 1
74 -1 1
75 -15 -41
76 -15 -41
77 -15 -41
78 -15 -41
79 -15 -41
80 -15 -41
81 -15 -41
82 7 -12
83 7 -12
84 7 -12
85 -6 -20
86 -6 -20
87 -6 -20
88 -6 -20
89 -6 -20
90 -6 -20
91 -19 -50
92 -19 -50
93 -19 -50
94 -19 -50
95 -19 -50
96 -19 -50
97 -19 -50
98 14 42
99 14 42
100 14 42
101 14 42
102 14 42
103 -15 -11
104 -15 -11
105 -15 -11
106 -15 -11
107 -15 -11
108 -15 -11
109 42 -12
110 42 -12
111 42 -12
112 42 -12
113 42 -12
114 39 41
115 39 41
116 14 -44
117 14 -44
118 14 -44
119 14 -44
120 14 -44
121 -29 28
122 -29 28
123 11 47
124 11 47
125 11 47
126 11 47
127 11 47
128 -40 -40
129 -40 -40
130 -40 -40
131 -40 -40
132 -40 -40
133 -40 -40
134 22 -25
135 22 -25
136 22 -25
137 22 -25
138 22 -25
139 -41 32
140 48 8
141 48 8
142 48 8
143 40 4
144 40 4
145 40 4
146 40 4
147 7 -19
148 7 -19
149 7 -19
150 7 -19
151 32 46
152 32 46
153 -39 13
154 -39 13
155 -39 13
156 -39 13
157 -39 13
158 -39 13
159 -29 0
160 -29 0
161 -29 0
162 -29 0
163 -29 0
164 29 -17
165 29 -17
166 29 -17
167 29 -17
168 21 -30
169 21 -30
170 6 -46
171 6 -46
172 6 -46
173 6 -46
174 6 -46
175 6 -46
176 -6 37
177 -6 37
178 -6 37
179 -6 37
180 -6 37
181 22 48
182 22 48
183 22 48
184 22 48
185 22 48
186 -42 -1
187 -42 -1
188 -42 -1
189 -42 -1
190 -42 -1
191 44 -34
192 44 -34
193 44 -34
194 44 -34
195 -17 49
196 -17 49
197 -17 49
198 -17 49
199 -17 49
200 37 37
201 37 37
202 37 37
203 -44 -2
204 -44 -2
205 -44 -2
206 -44 -2
207 -44 -2
208 -44 -2
209 0 32
210 0 32
211 38 25
212 38 25
213 38 25
214 38 25
215 38 25
216 38 25
217 38 25
218 3 11
219 3 11
220 3 11
221 3 11
222 -36 39
223 -36 39
224 -36 39
225 -36 39
226 -9 3
227 -9 3
228 -9 3
229 -9 3
230 -9 3
231 -9 3
232 -9 3
233 -30 -44
234 -30 -44
235 -30 -44
236 -30 -44
237 -30 -44
238 -30 -44
239 -7 46
240 -7 46
241 -7 46
242 -7 46
243 -7 46
244 -7 46
245 -7 46
246 -7 46
247 -40 -17
248 -40 -17
249 -40 -17
250 -23 3
251 -23 3
252 -23 3
253 -23 3
254 -23 3
255 -23 3
256 -23 3
257 -7 28
258 -7 28
259 -7 28
260 -7 28
261 8 -50
262 8 -50
263 8 -50
264 8 -50
265 8 -50
266 10 -8
267 10 -8
268 10 -8
269 10 -8
270 10 -8
271 39 -33
272 39 -33
273 39 -33
274 39 -33
275 39 -33
276 -19 -33
277 -19 -33
278 -19 -33
279 -19 -33
280 -19 -33
281 -19 -33
282 -19 -33
283 -15 -31
284 -15 -31
285 -15 -31
286 -15 -31
287 -15 -31
288 -15 -31
289 -15 -31
290 -4 7
291 -4 7
292 -4 7
293 -4 7
294 -4 7
295 -4 7
296 1 32
297 1 32
298 1 32
299 1 32
300 8 5
301 8 5
302 -38 43
303 -38 43
304 -38 43
305 -38 43
306 -40 -30
307 -40 -30
308 -40 -30
309 -40 -30
310 10 19
311 10 19
312 10 19
313 10 19
314 10 19
315 10 19
316 -19 2
317 -19 2
318 -19 2
319 47 31
320 47 31
321 47 31
322 47 31
323 -3 27
324 -3 27
325 -3 27
326 -3 27
327 -3 27
328 -3 27
329 -3 27
330 -39 -2
331 -39 -2
332 -39 -2
333 -39 -2
334 -45 18
335 -45 18
336 -45 18
337 13 10
338 -7 43
339 -7 43
340 -7 43
341 -7 43
342 -7 43
DEMAND_SECTION
1 0
2 140
3 70
4 14
5 14
6 12
7 280
8 140
9 70
10 140
11 70
12 14
13 14
14 12
15 280
16 280
17 14
18 14
19 12
20 140
21 70
22 14
23 6
24 280
25 140
26 70
27 14
28 14
29 12
30 280
31 140
32 70
33 14
34 14
35 2
36 280
37 14
38 14
39 2
40 280
41 70
42 280
43 280
44 10
45 280
46 14
47 14
48 2
49 140
50 70
51 10
52 280
53 280
54 14
55 14
56 2
57 280
58 280
59 10
60 280
61 280
62 14
63 14
64 12
65 280
66 280
67 14
68 6
69 140
70 70
71 14
72 14
73 14
74 8
75 280
76 280
77 70
78 14
79 14
80 14
81 8
82 140
83 70
84 10
85 280
86 280
87 70
88 14
89 14
90 2
91 280
92 280
93 14
94 14
95 14
96 14
97 4
98 280
99 14
100 14
101 14
102 8
103 140
104 70
105 14
106 14
107 14
108 8
109 280
110 70
111 14
112 14
113 2
114 280
115 70
116 280
117 280
118 70
119 14
120 6
121 280
122 280
123 280
124 70
125 14
126 14
127 12
128 280
129 14
130 14
131 14
132 14
133 4
134 140
135 70
136 14
137 14
138 12
139 280
140 280
141 280
142 140
143 140
144 14
145 14
146 12
147 280
148 14
149 14
150 12
151 280
152 10
153 280
154 14
155 14
156 14
157 14
158 4
159 280
160 70
161 14
162 14
163 12
164 280
165 14
166 14
167 2
168 280
169 280
170 280
171 14
172 14
173 14
174 14
175 4
176 140
177 70
178 14
179 14
180 12
181 140
182 70
183 14
184 14
185 12
186 280
187 140
188 14
189 14
190 2
191 280
192 280
193 14
194 6
195 280
196 280
197 70
198 14
199 6
200 280
201 140
202 70
203 280
204 280
205 70
206 14
207 14
208 12
209 140
210 70
211 280
212 140
213 14
214 14
215 14
216 14
217 4
218 140
219 14
220 14
221 2
222 140
223 70
224 14
225 6
226 280
227 140
228 70
229 14
230 14
231 14
232 8
233 280
234 280
235 70
236 14
237 14
238 12
239 280
240 280
241 70
242 14
243 14
244 14
245 14
246 4
247 280
248 280
249 10
250 280
251 140
252 14
253 14
254 14
255 14
256 4
257 140
258 14
259 14
260 12
261 280
262 70
263 14
264 14
265 2
266 280
267 280
268 14
269 14
270 12
271 280
272 280
273 14
274 14
275 2
276 280
277 280
278 14
279 14
280 14
281 14
282 4
283 280
284 280
285 14
286 14
287 14
288 14
289 4
290 140
291 70
292 14
293 14
294 14
295 8
296 280
297 280
298 14
299 6
300 280
301 70
302 280
303 140
304 14
305 6
306 280
307 14
308 14
309 12
310 140
311 70
312 14
313 14
314 14
315 8
316 280
317 280
318 140
319 280
320 140
321 70
322 10
323 280
324 140
325 70
326 14
327 14
328 14
329 8
330 140
331 70
332 14
333 6
334 280
335 140
336 70
337 280
338 280
339 70
340 14
341 14
342 12
DEPOT_SECTION
1
-1
EOF