SDVRP instances/custom_instances/p02_22_splitx10_0.sol
341 -4 3 1 2 5 192 193 190 191 111 112 110 109 108 -8 6 7 271 273 272 274 270 166 165 164 163 -18 15 16 17 318 321 319 320 212 214 215 216 211 213 210 -20 22 19 21 14 139 141 140 144 145 142 143 -32 33 31 51 53 55 52 54 303 301 304 302 221 223 222 224 -37 38 36 35 9 10 158 161 160 159 162 249 250 251 254 252 253 255 -39 40 56 57 58 152 153 155 157 154 156 13 11 12 229 227 -49 48 50 60 59 61 62 63 84 88 85 -66 67 65 64 135 133 134 137 136 168 167 -73 70 72 71 69 68 225 231 226 316 315 317 -86 87 89 77 75 76 78 74 79 80 94 91 90 93 92 96 95 -97 98 101 100 99 46 47 44 45 183 184 180 182 181 122 125 126 124 123 220 218 219 -102 104 43 41 42 234 237 233 236 232 235 -105 106 103 107 131 127 132 129 128 130 305 308 307 306 246 248 247 -116 119 118 117 115 263 260 264 262 261 170 172 169 174 171 173 -121 120 138 334 335 333 230 228 -149 146 148 147 81 83 82 267 269 268 266 265 -178 175 177 176 179 244 240 242 243 241 238 239 245 339 338 337 341 340 294 292 291 293 -188 186 189 185 187 207 202 204 206 203 205 330 329 332 331 -200 199 201 113 114 150 151 310 309 311 314 313 312 -217 24 25 27 23 26 28 336 300 299 -259 258 256 257 197 194 198 195 196 30 29 34 289 -281 275 276 280 278 279 277 287 284 285 288 283 286 282 -290 324 323 322 325 326 328 327 209 208 295 296 298 297 0 





OBJ=
2291.238
BEST_KNOWN=
0.000